p cnf 1267 1319
c ind 1258 846 851 852 853 854 855 857 858 859 0
c ind 860 861 862 863 864 865 866 867 868 869 0
c ind 870 871 872 873 874 875 876 881 882 888 0
c ind 889 890 891 892 893 894 895 896 897 898 0
c ind 899 900 901 902 911 912 913 914 917 918 0
c ind 919 920 921 922 925 926 927 928 929 930 0
c ind 939 940 941 942 945 946 947 948 949 950 0
c ind 953 954 955 956 957 958 959 960 961 962 0
c ind 963 965 966 967 968 969 970 971 972 973 0
c ind 974 975 976 977 978 979 980 981 982 983 0
c ind 984 985 987 989 990 991 992 993 994 995 0
c ind 996 997 998 1002 1003 1004 1005 1006 1008 1010 0
c ind 1011 1012 1013 1014 1015 1016 1017 1018 1019 1025 0
c ind 1026 1037 1038 1039 1040 1042 1043 1045 1047 1051 0
c ind 1056 1057 1058 1059 1060 1061 1062 1063 1064 1065 0
c ind 1066 1067 1068 1069 1070 1071 1073 1075 1076 1079 0
c ind 1080 1081 1082 1083 1087 1088 1089 1090 1091 1094 0
c ind 1095 1096 1097 1098 1099 1100 1101 1102 1103 1104 0
c ind 1105 1108 1109 1110 1111 1112 1116 1117 1118 1119 0
c ind 1120 1124 1125 1126 1127 1128 1131 1132 1133 1134 0
c ind 1136 1137 1138 1139 1140 1141 1142 1143 1144 1145 0
c ind 1146 1147 1148 1149 1150 1151 1152 1153 1154 1155 0
c ind 1156 1157 1158 1159 1160 1161 1162 1163 1165 1166 0
c ind 1167 1168 1169 1170 1171 1172 1173 1174 1175 1176 0
c ind 1177 1178 1179 1180 1181 1182 1183 1184 1185 1186 0
c ind 1187 1188 1189 1190 1191 1192 1194 1195 1196 1197 0
c ind 1198 1199 1200 1201 1202 1203 1204 1205 1206 1207 0
c ind 1208 1209 1210 1211 1212 1213 1214 1215 1216 1217 0
c ind 1218 1219 1220 1221 1223 1225 1226 1227 1229 1265 0
c ind 1234 1238 1243 1256 1257 1264 1255 1233 1237 1247 0
c ind 1248 1250 1242 1246 1252 847 848 1249 1251 1254 0
c ind 1260 1263 1232 1245 1236 1253 1230 1241 1262 1244 0
c ind 1235 1259 856 1228 1231 1240 1261 1024 1239 1021 0
c ind 1022 1023 849 964 1092 1093 1224 850 1086 1084 0
c ind 1085 1222 1078 1129 1130 1135 1164 1193 1123 1121 0
c ind 1122 1115 1113 1114 1107 1106 1072 1074 1077 1044 0
c ind 1046 1052 1053 1054 1055 1049 1050 1007 1009 1030 0
c ind 1031 1033 1034 1035 1036 1027 1028 1029 1032 1041 0
c ind 1048 1001 999 1000 1020 986 988 845 877 880 0
c ind 878 879 885 887 884 886 883 943 944 938 0
c ind 951 952 916 923 924 934 931 932 933 910 0
c ind 935 936 903 906 915 937 904 905 907 908 0
c ind 909 1 0
c ret 613 614 615 616 617 618 619 620 621 622 0
c ret 623 624 625 626 627 628 629 630 631 632 0
c ret 633 634 635 636 637 638 639 640 641 642 0
c ret 643 644 645 646 647 648 649 650 651 652 0
c ret 653 654 655 656 657 658 659 660 661 662 0
c ret 663 664 665 666 667 668 669 670 671 672 0
c ret 673 674 675 676 677 678 679 680 681 682 0
c ret 683 684 685 686 687 688 689 690 691 692 0
c ret 693 694 695 696 697 698 699 700 701 702 0
c ret 703 704 705 706 707 708 709 710 711 712 0
c ret 713 714 715 716 717 718 719 720 721 722 0
c ret 723 724 725 726 727 728 729 730 731 732 0
c ret 733 734 735 736 737 738 739 740 741 742 0
c ret 743 744 745 746 747 748 749 750 751 752 0
c ret 753 754 755 756 757 758 759 760 761 762 0
c ret 763 764 765 766 767 768 769 770 771 772 0
c ret 773 774 775 776 777 778 779 780 781 782 0
c ret 783 784 785 786 787 788 789 790 791 792 0
c ret 793 794 795 796 797 798 799 800 801 802 0
c ret 803 804 805 806 308 807 808 314 315 316 0
c ret 317 809 318 319 320 321 322 323 324 325 0
c ret 326 327 328 329 330 331 332 333 334 335 0
c ret 336 337 338 339 810 811 340 341 342 812 0
c ret 343 813 344 345 346 347 348 349 350 309 0
c ret 351 352 353 354 355 356 357 358 359 360 0
c ret 814 815 361 362 816 363 817 364 365 366 0
c ret 367 368 369 370 371 372 373 374 375 376 0
c ret 377 818 378 379 380 381 382 383 384 819 0
c ret 820 385 821 386 822 387 388 389 390 391 0
c ret 310 392 393 394 395 396 397 398 399 400 0
c ret 823 401 402 403 404 405 824 406 825 407 0
c ret 408 409 410 826 827 411 412 413 414 415 0
c ret 416 417 418 419 420 421 422 423 424 425 0
c ret 828 426 829 427 428 429 830 430 831 431 0
c ret 311 432 433 434 435 436 437 438 439 440 0
c ret 441 442 443 444 832 445 446 447 833 448 0
c ret 834 449 450 835 836 451 452 453 454 455 0
c ret 456 457 458 459 460 461 462 837 838 463 0
c ret 464 465 466 839 467 468 469 470 471 472 0
c ret 473 474 475 476 477 478 479 480 481 840 0
c ret 482 483 484 485 841 486 842 487 843 844 0
c ret 488 489 490 491 492 493 494 495 496 497 0
c ret 498 499 500 501 502 312 503 504 505 506 0
c ret 507 508 509 510 511 512 513 514 515 516 0
c ret 517 518 519 520 521 522 523 524 525 526 0
c ret 527 528 529 530 531 532 533 534 535 536 0
c ret 537 538 539 540 541 313 542 543 544 545 0
c ret 546 547 548 549 550 551 552 553 554 555 0
c ret 556 557 558 559 560 561 562 563 564 565 0
c ret 566 567 568 569 570 571 572 573 574 575 0
c ret 576 577 578 579 580 581 582 583 584 585 0
c ret 586 587 588 589 590 591 592 593 594 595 0
c ret 596 597 598 599 600 601 602 603 604 605 0
c ret 606 607 608 609 610 611 612 0
2 134 302 -303 0
2 3 302 -303 0
-2 303 0
-2 -302 0
-2 -3 -134 0
3 -4 -57 124 0
3 4 57 -114 0
3 4 57 124 0
3 -4 -57 -114 0
-3 4 -57 0
-3 -4 57 0
-3 114 -124 0
4 -5 -14 0
4 -5 51 0
-4 5 0
-4 14 -51 0
5 -6 -1077 0
-5 1077 0
-5 6 0
6 -7 9 0
6 -7 8 12 0
-6 7 0
-6 -8 -9 0
-6 -9 -12 0
7 -1135 -1164 -1193 0
-7 1135 0
-7 1164 0
-7 1193 0
8 1106 0
8 -1107 -1113 0
8 1107 -1114 0
-8 -1106 1107 1114 0
-8 -1106 -1107 1113 0
9 -10 -11 0
-8 9 -11 0
-9 11 0
8 -9 10 0
10 1115 1122 0
10 -1115 1121 0
-10 -1115 -1121 0
-10 1115 -1122 0
11 1106 0
11 -1107 1113 0
11 1107 1114 0
-11 -1106 1107 -1114 0
-11 -1106 -1107 -1113 0
12 13 0
-12 -13 0
8 13 -1115 1121 0
8 13 1115 1122 0
-8 -13 0
-13 1115 -1122 0
-13 -1115 -1121 0
14 -15 -50 -1265 0
14 15 -16 -50 0
-14 50 0
-14 -15 1265 0
-14 15 16 0
15 1072 -1074 0
-15 -1072 0
-15 1074 0
16 -17 -1264 0
16 17 -18 0
-16 -17 1264 0
-16 17 18 0
17 1044 -1046 0
-17 -1044 0
-17 1046 0
18 19 42 49 0
18 19 42 -45 0
-18 -19 0
-18 -42 0
-18 45 -49 0
19 -40 845 -1020 0
19 20 845 1020 0
-19 -845 0
-19 40 -1020 0
-19 -20 1020 0
20 -21 -1261 0
-20 1261 0
-20 21 0
21 -22 36 0
-21 22 0
-21 -36 0
22 -29 30 0
22 23 30 -910 0
-22 -30 0
-22 -23 29 0
-22 29 910 0
23 24 0
23 27 -909 0
23 27 915 0
-23 -24 -27 0
-23 -24 909 -915 0
24 -25 26 -903 -910 0
-24 25 0
-24 -26 0
-24 903 0
-24 910 0
25 904 905 906 0
-25 -904 0
-25 -906 0
-25 -905 0
26 907 -908 0
-26 -907 0
-26 908 0
27 28 909 915 -916 0
-27 -909 0
-27 -28 0
-27 916 0
-27 -915 0
28 923 924 0
-28 -923 0
-28 -924 0
25 29 -903 0
26 29 -903 -909 0
-29 903 0
-25 -29 909 0
-25 -26 -29 0
30 32 35 0
30 32 -34 0
30 31 32 0
-30 -32 0
-30 -31 34 -35 0
31 932 933 934 0
-31 -932 0
-31 -934 0
-31 -933 0
31 32 -931 0
32 33 -931 -937 0
-32 931 0
-31 -32 937 0
-31 -32 -33 0
33 935 -936 0
-33 -935 0
-33 936 0
34 943 944 0
34 943 951 952 0
-34 -943 0
-34 -944 -951 0
-34 -944 -952 0
33 35 -931 937 -938 0
-35 938 0
-33 -35 0
-35 931 0
-35 -937 0
36 -37 -877 0
36 -39 -877 0
36 -38 -877 0
-36 877 0
-36 37 38 39 0
37 -878 879 880 0
-37 878 0
-37 -880 0
-37 -879 0
38 883 886 887 0
-38 -883 0
-38 -887 0
-38 -886 0
39 -883 884 885 0
-39 883 0
-39 -885 0
-39 -884 0
40 -41 1262 0
20 40 41 0
-40 -41 -1262 0
-20 -40 41 0
41 986 -988 0
-41 -986 0
-41 988 0
42 -43 -44 -1030 0
42 -43 -44 -1031 0
-42 44 0
-42 43 0
-42 1030 1031 0
43 1033 1034 1035 1036 0
-43 -1036 0
-43 -1035 0
-43 -1033 0
-43 -1034 0
44 -1027 -1028 -1029 1032 0
-44 1029 0
-44 -1032 0
-44 1027 0
-44 1028 0
40 45 -46 0
-40 -45 0
-45 46 0
46 47 48 0
-46 -47 0
-46 -48 0
47 1007 -1009 0
-47 -1007 0
-47 1009 0
48 999 1000 1001 0
-48 -999 0
-48 -1001 0
-48 -1000 0
47 49 -845 0
49 -845 1263 0
-49 845 0
-47 -49 -1263 0
50 -1041 1048 0
-50 1041 0
-50 -1048 0
51 -52 -1041 0
16 18 51 0
16 51 -1041 0
18 51 -52 0
-18 -51 1041 0
-16 -51 52 0
52 54 1048 0
52 -53 54 0
52 54 1041 0
-52 -54 0
-52 53 -1041 -1048 0
53 -1049 1050 0
-53 1049 0
-53 -1050 0
54 55 -56 0
-54 -55 0
-54 56 0
55 1052 -1053 -1054 1055 0
-55 -1052 0
-55 -1055 0
-55 1054 0
-55 1053 0
56 -1041 -1048 -1049 1050 0
-56 1049 0
-56 -1050 0
-56 1041 0
-56 1048 0
57 -58 -69 0
57 -58 108 0
-57 58 0
-57 69 -108 0
58 -59 -65 -66 -598 0
-58 66 0
-58 598 0
-58 65 0
-58 59 0
59 61 -569 0
59 60 64 -569 0
-59 569 0
-59 -60 -61 0
-59 -61 -64 0
60 540 0
60 -541 -547 0
60 541 -548 0
-60 -540 541 548 0
-60 -540 -541 547 0
-60 61 -62 0
61 -62 -63 0
-61 62 0
60 -61 63 0
62 540 0
62 -541 547 0
62 541 548 0
-62 -540 541 -548 0
-62 -540 -541 -547 0
-60 63 0
63 549 -556 0
63 -549 -555 0
60 -63 -549 555 0
60 -63 549 556 0
-60 64 0
64 -549 555 0
64 549 556 0
60 -64 -549 -555 0
60 -64 549 -556 0
65 -627 -656 0
-65 627 0
-65 656 0
66 -67 -68 0
-66 67 0
-66 68 0
67 -743 -772 0
-67 743 0
-67 772 0
68 -685 -714 0
-68 685 0
-68 714 0
69 -70 -107 -844 0
69 70 -71 -107 0
-69 107 0
-69 -70 844 0
-69 70 71 0
70 535 -537 0
-70 -535 0
-70 537 0
71 -72 -843 0
71 72 -73 0
-71 -72 843 0
-71 72 73 0
72 507 -509 0
-72 -507 0
-72 509 0
73 74 99 106 0
73 74 99 -102 0
-73 -74 0
-73 -99 0
-73 102 -106 0
74 -97 308 -483 0
74 75 308 483 0
-74 -308 0
-74 97 -483 0
-74 -75 483 0
75 -76 -840 0
-75 840 0
-75 76 0
76 77 -81 0
-76 -77 0
-76 81 0
77 -78 -340 0
77 -80 -340 0
77 -79 -340 0
-77 340 0
-77 78 79 80 0
78 -341 342 343 0
-78 341 0
-78 -343 0
-78 -342 0
79 346 349 350 0
-79 -346 0
-79 -350 0
-79 -349 0
80 -346 347 348 0
-80 346 0
-80 -348 0
-80 -347 0
81 82 -89 0
81 82 92 -373 0
-81 -82 0
-81 89 -92 0
-81 89 373 0
82 -83 86 0
82 86 394 0
-82 -86 0
-82 83 -394 0
83 -85 397 400 0
83 -84 -85 397 0
-83 -397 0
-83 85 0
-83 84 -400 0
84 398 -399 0
-84 -398 0
-84 399 0
85 395 396 0
-85 -395 0
-85 -396 0
84 -85 86 87 -88 0
85 -86 0
-86 -87 0
-84 -86 0
-86 88 0
87 406 407 0
87 406 414 415 0
-87 -406 0
-87 -407 -414 0
-87 -407 -415 0
88 -394 397 400 -401 0
-88 401 0
-88 -400 0
-88 394 0
-88 -397 0
89 90 -366 0
89 91 -366 -372 0
-89 366 0
-89 -90 372 0
-89 -90 -91 0
90 367 368 369 0
-90 -367 0
-90 -369 0
-90 -368 0
91 370 -371 0
-91 -370 0
-91 371 0
92 93 96 0
-92 -93 0
-92 -96 0
93 -94 -95 -386 0
93 -94 -95 -387 0
-93 95 0
-93 94 0
-93 386 387 0
-90 91 94 -366 -373 0
90 -94 0
-91 -94 0
-94 366 0
-94 373 0
95 372 378 -379 0
-95 379 0
-95 -378 0
-95 -372 0
-94 96 372 -378 0
94 -96 0
-96 378 0
-96 -372 0
97 -98 841 0
75 97 98 0
-97 -98 -841 0
-75 -97 98 0
98 449 -451 0
-98 -449 0
-98 451 0
99 -100 -101 -493 0
99 -100 -101 -494 0
-99 101 0
-99 100 0
-99 493 494 0
100 496 497 498 499 0
-100 -499 0
-100 -498 0
-100 -496 0
-100 -497 0
101 -490 -491 -492 495 0
-101 492 0
-101 -495 0
-101 490 0
-101 491 0
97 102 -103 0
-97 -102 0
-102 103 0
103 104 105 0
-103 -104 0
-103 -105 0
104 462 463 464 0
-104 -462 0
-104 -464 0
-104 -463 0
105 470 -472 0
-105 -470 0
-105 472 0
105 106 -308 0
106 -308 842 0
-106 308 0
-105 -106 -842 0
107 -504 511 0
-107 504 0
-107 -511 0
108 -109 -504 0
71 73 108 0
71 108 -504 0
73 108 -109 0
-73 -108 504 0
-71 -108 109 0
109 111 511 0
109 -110 111 0
109 111 504 0
-109 -111 0
-109 110 -504 -511 0
110 -512 513 0
-110 512 0
-110 -513 0
111 112 -113 0
-111 -112 0
-111 113 0
112 515 -516 -517 518 0
-112 -515 0
-112 -518 0
-112 517 0
-112 516 0
113 -504 -511 -512 513 0
-113 512 0
-113 -513 0
-113 504 0
-113 511 0
-5 114 -115 0
-5 114 123 0
5 -114 0
-114 115 -123 0
15 -50 115 -116 0
-15 -50 115 -1243 0
50 -115 0
15 -115 116 0
-15 -115 1243 0
-17 116 -1242 0
17 116 -117 0
-17 -116 1242 0
17 -116 117 0
42 117 118 122 0
42 117 118 -121 0
-42 -117 0
-117 -118 0
-117 121 -122 0
118 -120 845 -1020 0
118 119 845 1020 0
-118 -845 0
-118 120 -1020 0
-118 -119 1020 0
-21 119 -1239 0
-119 1239 0
21 -119 0
-41 120 1240 0
41 119 120 0
-41 -120 -1240 0
41 -119 -120 0
-46 120 121 0
46 -121 0
-120 -121 0
47 122 -845 0
122 -845 1241 0
-122 845 0
-47 -122 -1241 0
-52 117 123 0
116 123 -1041 0
-52 123 -1041 0
116 117 123 0
52 -116 -123 0
-117 -123 1041 0
-58 124 -125 0
-58 124 133 0
58 -124 0
-124 125 -133 0
70 -107 125 -126 0
-70 -107 125 -822 0
107 -125 0
70 -125 126 0
-70 -125 822 0
-72 126 -821 0
72 126 -127 0
-72 -126 821 0
72 -126 127 0
99 127 128 132 0
99 127 128 -131 0
-99 -127 0
-127 -128 0
-127 131 -132 0
128 -130 308 -483 0
128 129 308 483 0
-128 -308 0
-128 130 -483 0
-128 -129 483 0
-76 129 -818 0
-129 818 0
76 -129 0
-98 130 819 0
98 129 130 0
-98 -130 -819 0
98 -129 -130 0
-103 130 131 0
103 -131 0
-130 -131 0
105 132 -308 0
132 -308 820 0
-132 308 0
-105 -132 -820 0
-109 127 133 0
126 133 -504 0
-109 133 -504 0
126 127 133 0
109 -126 -133 0
-127 -133 504 0
134 135 145 -155 -283 0
134 -135 -145 -155 -283 0
-134 283 0
-134 -135 145 0
-134 155 0
-134 135 -145 0
-5 135 -136 0
-5 135 144 0
5 -135 0
-135 136 -144 0
15 -50 136 -137 0
-15 -50 136 -1234 0
50 -136 0
15 -136 137 0
-15 -136 1234 0
-17 137 -1233 0
17 137 -138 0
-17 -137 1233 0
17 -137 138 0
42 138 139 143 0
42 138 139 -142 0
-42 -138 0
-138 -139 0
-138 142 -143 0
139 140 -845 1232 0
47 139 140 -845 0
-139 845 0
-139 -140 0
-47 -139 -1232 0
-46 140 141 0
46 -140 0
-140 -141 0
21 41 141 0
-41 141 1231 0
41 141 850 0
-41 -141 -1231 0
-21 41 -141 -850 0
-21 41 142 -850 0
-21 142 -850 1020 0
21 -142 0
-142 850 0
-41 -142 -1020 0
143 845 1231 0
143 845 1020 0
41 143 845 0
-143 -845 0
-41 -143 -1020 -1231 0
-52 138 144 0
137 144 -1041 0
-52 144 -1041 0
137 138 144 0
52 -137 -144 0
-138 -144 1041 0
-58 145 -146 0
-58 145 154 0
58 -145 0
-145 146 -154 0
70 -107 146 -147 0
-70 -107 146 -813 0
107 -146 0
70 -146 147 0
-70 -146 813 0
-72 147 -812 0
72 147 -148 0
-72 -147 812 0
72 -147 148 0
99 148 149 153 0
99 148 149 -152 0
-99 -148 0
-148 -149 0
-148 152 -153 0
149 150 -308 811 0
105 149 150 -308 0
-149 308 0
-149 -150 0
-105 -149 -811 0
-103 150 151 0
103 -150 0
-150 -151 0
76 98 151 0
-98 151 810 0
98 151 313 0
-98 -151 -810 0
-76 98 -151 -313 0
-76 98 152 -313 0
-76 152 -313 483 0
76 -152 0
-152 313 0
-98 -152 -483 0
153 308 810 0
153 308 483 0
98 153 308 0
-153 -308 0
-98 -153 -483 -810 0
-109 148 154 0
147 154 -504 0
-109 154 -504 0
147 148 154 0
109 -147 -154 0
-148 -154 504 0
155 -156 203 213 -223 0
155 -156 -203 -213 -223 0
-155 223 0
-155 -203 213 0
-155 156 0
-155 203 -213 0
156 -157 -172 -194 0
156 157 172 185 0
156 157 172 -194 0
156 -157 -172 185 0
-156 157 -172 0
-156 -157 172 0
-156 -185 194 0
157 -158 -160 0
157 -158 -170 0
157 -158 -169 0
-157 158 0
-157 160 169 170 0
-59 -65 158 -159 0
59 -158 0
65 -158 0
-158 159 0
-67 -68 159 -598 0
-159 598 0
67 -159 0
68 -159 0
160 163 -164 0
-103 160 161 -164 0
-160 164 0
-160 -161 -163 0
103 -160 -163 0
-98 161 833 0
98 161 162 0
-98 -161 -833 0
98 -161 -162 0
-76 162 -832 0
-162 832 0
76 -162 0
105 163 -308 0
163 -308 834 0
-163 308 0
-105 -163 -834 0
164 -165 168 0
-164 165 0
-164 -168 0
99 165 166 0
-99 -165 0
-165 -166 0
-72 166 -504 0
166 -167 -504 0
-166 504 0
72 -166 167 0
-70 111 167 511 0
-110 111 167 -511 0
-111 -167 0
110 -167 -511 0
70 -167 511 0
-161 168 308 -483 0
162 168 308 483 0
-168 -308 0
161 -168 -483 0
-162 -168 483 0
-70 -107 169 -836 0
-169 836 0
70 -169 0
107 -169 0
-72 170 -171 -835 0
-170 835 0
72 -170 0
-170 171 0
167 171 -504 0
-171 504 0
-167 -171 0
-7 172 173 -1077 -1106 0
7 -172 0
-172 -173 0
-172 1077 0
-172 1106 0
173 178 -182 0
173 -181 -182 0
173 -174 -182 0
-173 182 0
-173 174 -178 181 0
174 175 -845 1255 0
47 174 175 -845 0
-174 845 0
-174 -175 0
-47 -174 -1255 0
-46 175 176 0
46 -175 0
-175 -176 0
-41 176 1254 0
41 176 177 0
-41 -176 -1254 0
41 -176 -177 0
-21 177 -1253 0
-177 1253 0
21 -177 0
42 178 179 0
-42 -178 0
-178 -179 0
-17 179 -1041 0
179 -180 -1041 0
-179 1041 0
17 -179 180 0
-15 54 180 1048 0
-53 54 180 -1048 0
-54 -180 0
53 -180 -1048 0
15 -180 1048 0
-176 181 845 -1020 0
177 181 845 1020 0
-181 -845 0
176 -181 -1020 0
-177 -181 1020 0
15 182 183 0
50 182 183 0
182 183 1257 0
-182 -183 0
-15 -50 -182 -1257 0
-17 183 -184 -1256 0
-183 1256 0
17 -183 0
-183 184 0
180 184 -1041 0
-184 1041 0
-180 -184 0
-5 185 -186 0
-5 185 -193 0
-5 185 -192 0
5 -185 0
-185 186 192 193 0
186 189 -190 0
-46 186 187 -190 0
-186 190 0
-186 -187 -189 0
46 -186 -189 0
-41 187 1245 0
41 187 188 0
-41 -187 -1245 0
41 -187 -188 0
-21 188 -1244 0
-188 1244 0
21 -188 0
47 189 -845 0
189 -845 1246 0
-189 845 0
-47 -189 -1246 0
-178 190 191 0
178 -190 0
-190 -191 0
-187 191 845 -1020 0
188 191 845 1020 0
-191 -845 0
187 -191 -1020 0
-188 -191 1020 0
-15 -50 192 -1248 0
-192 1248 0
15 -192 0
50 -192 0
-17 -184 193 -1247 0
-193 1247 0
17 -193 0
184 -193 0
-158 194 -195 0
-158 194 -202 0
-158 194 -201 0
158 -194 0
-194 195 201 202 0
195 198 -199 0
-103 195 196 -199 0
-195 199 0
-195 -196 -198 0
103 -195 -198 0
-98 196 824 0
98 196 197 0
-98 -196 -824 0
98 -196 -197 0
-76 197 -823 0
-197 823 0
76 -197 0
105 198 -308 0
198 -308 825 0
-198 308 0
-105 -198 -825 0
-165 199 200 0
165 -199 0
-199 -200 0
-196 200 308 -483 0
197 200 308 483 0
-200 -308 0
196 -200 -483 0
-197 -200 483 0
-70 -107 201 -827 0
-201 827 0
70 -201 0
107 -201 0
-72 -171 202 -826 0
-202 826 0
72 -202 0
171 -202 0
-5 179 203 204 0
-5 203 204 212 0
5 -203 0
-203 -204 0
-179 -203 -212 0
204 206 1041 0
17 204 205 206 0
-204 -206 0
-204 -205 -1041 0
-17 -204 -1041 0
-15 205 1048 -1252 0
15 -205 0
-205 1252 0
-205 -1048 0
42 206 207 211 0
42 206 207 -210 0
-42 -206 0
-206 -207 0
-206 210 -211 0
207 -209 845 -1020 0
207 208 845 1020 0
-207 -845 0
-207 209 -1020 0
-207 -208 1020 0
-21 208 -849 0
-208 849 0
21 -208 0
-41 209 1249 0
41 208 209 0
-41 -209 -1249 0
41 -208 -209 0
-46 209 210 0
46 -210 0
-209 -210 0
47 211 -845 0
211 -845 1250 0
-211 845 0
-47 -211 -1250 0
-180 205 212 0
205 212 1251 0
-205 -212 0
180 -212 -1251 0
-158 166 213 214 0
-158 213 214 222 0
158 -213 0
-213 -214 0
-166 -213 -222 0
214 216 504 0
72 214 215 216 0
-214 -216 0
-214 -215 -504 0
-72 -214 -504 0
-70 215 511 -831 0
70 -215 0
-215 831 0
-215 -511 0
99 216 217 221 0
99 216 217 -220 0
-99 -216 0
-216 -217 0
-216 220 -221 0
217 -219 308 -483 0
217 218 308 483 0
-217 -308 0
-217 219 -483 0
-217 -218 483 0
-76 218 -312 0
-218 312 0
76 -218 0
-98 219 828 0
98 218 219 0
-98 -219 -828 0
98 -218 -219 0
-103 219 220 0
103 -220 0
-219 -220 0
105 221 -308 0
221 -308 829 0
-221 308 0
-105 -221 -829 0
-167 215 222 0
215 222 830 0
-215 -222 0
167 -222 -830 0
223 224 -225 -267 -275 0
223 224 -225 267 275 0
-223 -224 0
-223 267 -275 0
-223 225 0
-223 -267 275 0
185 -194 224 0
-185 -224 0
194 -224 0
225 226 254 258 -261 0
225 226 -254 -258 -261 0
-225 261 0
-225 -254 258 0
-225 -226 0
-225 254 -258 0
226 227 -238 0
226 -227 238 0
-226 -227 -238 0
-226 227 238 0
227 -231 308 0
104 227 -228 -231 0
-227 231 0
-227 228 -308 0
-104 -227 -308 0
228 427 -839 0
228 -229 -427 0
-228 229 -427 0
-228 427 839 0
-81 229 -801 0
77 -81 229 230 0
81 -229 0
-229 -230 801 0
-77 -229 801 0
230 319 838 0
-230 -319 0
-230 -838 0
-159 231 232 -235 -237 0
-231 237 0
159 -231 0
-231 235 0
-231 -232 0
228 232 233 0
228 229 232 0
229 232 -233 308 0
-228 -232 233 0
-229 -232 -233 0
-228 -232 -308 0
233 -234 483 484 487 0
-233 234 0
-233 -487 0
-233 -483 0
-233 -484 0
234 485 486 0
-234 -485 0
-234 -486 0
61 235 -236 0
64 235 -236 -540 0
-235 236 0
-61 -64 -235 0
-61 -235 540 0
99 113 236 0
99 112 236 0
-99 -236 0
-112 -113 -236 0
-65 237 -569 0
-237 569 0
65 -237 0
238 -242 845 0
48 238 -239 -242 0
-238 242 0
-238 239 -845 0
-48 -238 -845 0
239 964 -1260 0
239 -240 -964 0
-239 240 -964 0
-239 964 1260 0
-22 240 -1222 0
-22 36 240 241 0
22 -240 0
-240 -241 1222 0
-36 -240 1222 0
241 856 1259 0
-241 -856 0
-241 -1259 0
242 243 -246 0
-242 -243 0
-242 246 0
239 243 244 0
239 240 243 0
240 243 -244 845 0
-239 -243 244 0
-240 -243 -244 0
-239 -243 -845 0
244 -245 1020 1021 0
-244 245 0
-244 -1021 0
-244 -1020 0
245 1022 1023 1024 0
-245 -1022 0
-245 -1024 0
-245 -1023 0
-6 246 -247 0
6 -246 0
-246 247 0
247 -248 251 0
247 -248 249 -1077 0
-247 248 0
-247 -251 1077 0
-247 -249 -251 0
42 56 248 0
42 55 248 0
-42 -248 0
-55 -56 -248 0
249 -250 0
249 -1086 1092 0
249 1086 1093 0
-249 250 -1086 -1092 0
-249 250 1086 -1093 0
250 1077 0
250 -1078 -1084 0
250 1078 -1085 0
-250 -1077 1078 1085 0
-250 -1077 -1078 1084 0
251 -252 253 0
-251 252 0
-251 -253 0
252 1077 0
252 -1078 1084 0
252 1078 1085 0
-252 -1077 1078 -1085 0
-252 -1077 -1078 -1084 0
250 253 -1086 1092 0
250 253 1086 1093 0
-250 -253 0
-253 1086 -1093 0
-253 -1086 -1092 0
-81 254 -255 256 -257 0
-254 257 0
81 -254 0
-254 255 0
-254 -256 0
-65 -68 -235 255 -598 0
235 -255 0
-255 598 0
68 -255 0
65 -255 0
-104 256 -308 0
-256 308 0
104 -256 0
-67 257 -569 -801 803 0
67 -257 0
-257 569 0
-257 801 0
-257 -803 0
-6 -247 258 -259 260 0
-258 259 0
-258 -260 0
6 -258 0
247 -258 0
-22 259 -1222 1224 0
-259 1222 0
-259 -1224 0
22 -259 0
-48 260 -845 0
-260 845 0
48 -260 0
9 261 -262 -265 0
12 261 -262 -265 0
-261 265 0
-261 262 0
-9 -12 -261 0
36 -248 260 262 -263 0
248 -262 0
-260 -262 0
-36 -262 0
-262 263 0
-7 263 264 -849 0
-7 263 264 850 0
7 -263 0
-263 -264 0
-263 849 -850 0
264 847 848 0
-264 -847 0
-264 -848 0
30 250 265 266 0
30 252 265 266 0
-30 -265 0
-265 -266 0
-250 -252 -265 0
-23 29 266 0
23 -266 0
-29 -266 0
267 -271 845 0
48 267 268 -271 0
-267 271 0
-267 -268 -845 0
-48 -267 -845 0
268 269 -964 0
-259 268 964 1230 0
-268 964 -1230 0
-268 -269 -964 0
259 -268 964 0
-22 269 -270 0
22 -269 0
-269 270 0
270 -1222 -1224 0
36 270 1222 0
270 -1222 -1228 0
-36 -270 1222 0
-270 -1222 1224 1228 0
-246 271 -272 273 0
-246 268 271 273 0
246 -271 0
-271 -273 0
-268 -271 272 0
272 1020 1021 0
-272 -1020 0
-272 -1021 0
269 273 -274 0
245 -268 273 0
245 273 -274 0
-268 269 273 0
268 -273 274 0
-245 -269 -273 0
-244 274 845 0
-274 -845 0
244 -274 0
-67 -255 275 276 -569 0
255 -275 0
-275 -276 0
-275 569 0
67 -275 0
233 276 -277 0
276 281 282 0
276 -277 281 0
-276 277 -282 0
-233 -276 -281 0
-276 277 -281 0
277 278 -427 0
-81 277 -280 427 0
-277 -278 -427 0
81 -277 427 0
-277 280 427 0
-81 278 -279 0
81 -278 0
-278 279 0
279 -801 -803 0
77 279 801 0
279 -801 -807 0
-77 -279 801 0
-279 -801 803 807 0
280 -801 803 809 0
-280 801 0
-280 -809 0
-280 -803 0
233 281 308 0
-278 281 308 0
-281 -308 0
-233 278 -281 0
104 282 -308 0
-282 308 0
-104 -282 0
114 283 -284 -293 0
-124 283 284 293 0
114 283 284 293 0
-124 283 -284 -293 0
-283 284 -293 0
-283 -284 293 0
-114 124 -283 0
-5 284 -285 0
-5 284 292 0
5 -284 0
-284 285 -292 0
15 -50 285 -286 0
-15 -50 285 -1238 0
50 -285 0
15 -285 286 0
-15 -285 1238 0
-17 286 -1237 0
17 286 -287 0
-17 -286 1237 0
17 -286 287 0
42 287 288 291 0
42 287 288 -290 0
-42 -287 0
-287 -288 0
-287 290 -291 0
288 -289 845 -1020 0
21 288 845 1020 0
-288 -845 0
-288 289 -1020 0
-21 -288 1020 0
-41 289 1235 0
21 41 289 0
-41 -289 -1235 0
-21 41 -289 0
-46 289 290 0
46 -290 0
-289 -290 0
47 291 -845 0
291 -845 1236 0
-291 845 0
-47 -291 -1236 0
-52 287 292 0
286 292 -1041 0
-52 292 -1041 0
286 287 292 0
52 -286 -292 0
-287 -292 1041 0
-58 293 -294 0
-58 293 301 0
58 -293 0
-293 294 -301 0
70 -107 294 -295 0
-70 -107 294 -817 0
107 -294 0
70 -294 295 0
-70 -294 817 0
-72 295 -816 0
72 295 -296 0
-72 -295 816 0
72 -295 296 0
99 296 297 300 0
99 296 297 -299 0
-99 -296 0
-296 -297 0
-296 299 -300 0
297 -298 308 -483 0
76 297 308 483 0
-297 -308 0
-297 298 -483 0
-76 -297 483 0
-98 298 814 0
76 98 298 0
-98 -298 -814 0
-76 98 -298 0
-103 298 299 0
103 -299 0
-298 -299 0
105 300 -308 0
300 -308 815 0
-300 308 0
-105 -300 -815 0
-109 296 301 0
295 301 -504 0
-109 301 -504 0
295 296 301 0
109 -295 -301 0
-296 -301 504 0
-62 -63 -64 302 0
62 -302 0
63 -302 0
64 -302 0
77 -236 303 304 -305 0
236 -303 0
-303 -304 0
-77 -303 0
-303 305 0
89 93 96 304 0
-89 -304 0
-96 -304 0
-93 -304 0
-66 82 256 305 -306 0
-305 306 0
-256 -305 0
66 -305 0
-82 -305 0
-65 306 -307 -569 -598 0
-306 307 0
-306 569 0
65 -306 0
-306 598 0
307 -311 -312 0
307 -310 313 0
307 -310 -312 0
307 -311 313 0
-307 312 -313 0
-307 310 311 0
1 2 0
-1 -2 0
1266 0

